% seed = 8713217

mint = 37;
% maxt = 89;

nActs = 22;
dur = [0,8,4,8,5,9,1,4,4,4,1,2,1,9,6,1,5,6,3,4,4,0];

nSkills = 4;
sreq = [| 0,0,0,0,
	| 2,2,1,1,
	| 1,1,3,3,
	| 1,1,2,1,
	| 3,3,3,1,
	| 3,1,2,2,
	| 1,1,2,2,
	| 1,1,3,3,
	| 3,3,3,2,
	| 3,3,1,2,
	| 3,3,3,1,
	| 2,2,2,3,
	| 1,2,2,1,
	| 2,2,3,2,
	| 2,3,1,1,
	| 3,2,3,1,
	| 1,2,1,2,
	| 3,3,3,2,
	| 2,2,1,1,
	| 3,2,2,2,
	| 1,1,2,3,
	| 0,0,0,0, |];

nResources = 25;
mastery = [| true,false,true,false,
	| true,true,true,false,
	| false,false,false,true,
	| false,true,true,false,
	| false,true,true,true,
	| true,false,false,true,
	| true,false,true,true,
	| false,false,true,false,
	| true,true,true,false,
	| true,true,false,true,
	| true,false,true,false,
	| false,false,true,false,
	| true,false,true,true,
	| true,true,true,false,
	| false,true,true,true,
	| false,true,false,true,
	| true,true,false,true,
	| true,false,false,false,
	| true,false,true,false,
	| false,true,true,false,
	| true,true,true,false,
	| true,false,false,false,
	| true,false,false,false,
	| true,false,true,false,
	| true,false,false,false, |];

nPrecs = 31;
pred = [1,1,1,2,3,3,3,4,4,4,5,5,6,7,7,7,8,9,10,11,12,13,14,15,15,16,17,18,19,20,21];
succ = [2,3,4,6,10,5,7,14,15,8,11,6,9,11,12,13,21,15,20,15,16,20,19,17,20,18,21,19,22,22,22];

nUnrels = 118;
unpred = [2,2,2,2,2,2,2,2,2,2,2,2,2,3,3,3,4,4,4,4,4,4,4,4,4,4,5,5,5,5,5,5,5,5,5,6,6,6,6,6,6,6,6,6,6,7,7,7,7,8,8,8,8,8,8,8,8,8,8,8,8,9,9,9,9,9,9,9,9,10,10,10,10,10,10,10,10,10,10,11,11,11,11,11,11,12,12,12,12,12,12,13,13,13,13,13,13,13,14,14,14,14,14,14,15,15,15,16,16,16,17,17,17,18,18,19,19,20];
unsucc = [3,4,5,7,8,10,11,12,13,14,16,18,19,4,8,14,5,6,7,9,10,11,12,13,16,18,7,8,10,12,13,14,16,18,19,7,8,10,11,12,13,14,16,18,19,8,9,10,14,9,10,11,12,13,14,15,16,17,18,19,20,10,11,12,13,14,16,18,19,11,12,13,14,15,16,17,18,19,21,12,13,14,16,18,19,13,14,15,17,20,21,14,15,16,17,18,19,21,15,16,17,18,20,21,16,18,19,17,20,21,18,19,20,20,21,20,21,21];

USEFUL_RES = [{},
	{1,2,3,4,5,6,7,8,9,10,11,12,13,14,15,16,17,18,19,20,21,22,23,24,25},
	{1,2,3,4,5,6,7,8,9,10,11,12,13,14,15,16,17,18,19,20,21,22,23,24,25},
	{1,2,3,4,5,6,7,8,9,10,11,12,13,14,15,16,17,18,19,20,21,22,23,24,25},
	{1,2,3,4,5,6,7,8,9,10,11,12,13,14,15,16,17,18,19,20,21,22,23,24,25},
	{1,2,3,4,5,6,7,8,9,10,11,12,13,14,15,16,17,18,19,20,21,22,23,24,25},
	{1,2,3,4,5,6,7,8,9,10,11,12,13,14,15,16,17,18,19,20,21,22,23,24,25},
	{1,2,3,4,5,6,7,8,9,10,11,12,13,14,15,16,17,18,19,20,21,22,23,24,25},
	{1,2,3,4,5,6,7,8,9,10,11,12,13,14,15,16,17,18,19,20,21,22,23,24,25},
	{1,2,3,4,5,6,7,8,9,10,11,12,13,14,15,16,17,18,19,20,21,22,23,24,25},
	{1,2,3,4,5,6,7,8,9,10,11,12,13,14,15,16,17,18,19,20,21,22,23,24,25},
	{1,2,3,4,5,6,7,8,9,10,11,12,13,14,15,16,17,18,19,20,21,22,23,24,25},
	{1,2,3,4,5,6,7,8,9,10,11,12,13,14,15,16,17,18,19,20,21,22,23,24,25},
	{1,2,3,4,5,6,7,8,9,10,11,12,13,14,15,16,17,18,19,20,21,22,23,24,25},
	{1,2,3,4,5,6,7,8,9,10,11,12,13,14,15,16,17,18,19,20,21,22,23,24,25},
	{1,2,3,4,5,6,7,8,9,10,11,12,13,14,15,16,17,18,19,20,21,22,23,24,25},
	{1,2,3,4,5,6,7,8,9,10,11,12,13,14,15,16,17,18,19,20,21,22,23,24,25},
	{1,2,3,4,5,6,7,8,9,10,11,12,13,14,15,16,17,18,19,20,21,22,23,24,25},
	{1,2,3,4,5,6,7,8,9,10,11,12,13,14,15,16,17,18,19,20,21,22,23,24,25},
	{1,2,3,4,5,6,7,8,9,10,11,12,13,14,15,16,17,18,19,20,21,22,23,24,25},
	{1,2,3,4,5,6,7,8,9,10,11,12,13,14,15,16,17,18,19,20,21,22,23,24,25},
	{}];

POTENTIAL_ACT = [{2,3,4,5,6,7,8,9,10,11,12,13,14,15,16,17,18,19,20,21},
	{2,3,4,5,6,7,8,9,10,11,12,13,14,15,16,17,18,19,20,21},
	{2,3,4,5,6,7,8,9,10,11,12,13,14,15,16,17,18,19,20,21},
	{2,3,4,5,6,7,8,9,10,11,12,13,14,15,16,17,18,19,20,21},
	{2,3,4,5,6,7,8,9,10,11,12,13,14,15,16,17,18,19,20,21},
	{2,3,4,5,6,7,8,9,10,11,12,13,14,15,16,17,18,19,20,21},
	{2,3,4,5,6,7,8,9,10,11,12,13,14,15,16,17,18,19,20,21},
	{2,3,4,5,6,7,8,9,10,11,12,13,14,15,16,17,18,19,20,21},
	{2,3,4,5,6,7,8,9,10,11,12,13,14,15,16,17,18,19,20,21},
	{2,3,4,5,6,7,8,9,10,11,12,13,14,15,16,17,18,19,20,21},
	{2,3,4,5,6,7,8,9,10,11,12,13,14,15,16,17,18,19,20,21},
	{2,3,4,5,6,7,8,9,10,11,12,13,14,15,16,17,18,19,20,21},
	{2,3,4,5,6,7,8,9,10,11,12,13,14,15,16,17,18,19,20,21},
	{2,3,4,5,6,7,8,9,10,11,12,13,14,15,16,17,18,19,20,21},
	{2,3,4,5,6,7,8,9,10,11,12,13,14,15,16,17,18,19,20,21},
	{2,3,4,5,6,7,8,9,10,11,12,13,14,15,16,17,18,19,20,21},
	{2,3,4,5,6,7,8,9,10,11,12,13,14,15,16,17,18,19,20,21},
	{2,3,4,5,6,7,8,9,10,11,12,13,14,15,16,17,18,19,20,21},
	{2,3,4,5,6,7,8,9,10,11,12,13,14,15,16,17,18,19,20,21},
	{2,3,4,5,6,7,8,9,10,11,12,13,14,15,16,17,18,19,20,21},
	{2,3,4,5,6,7,8,9,10,11,12,13,14,15,16,17,18,19,20,21},
	{2,3,4,5,6,7,8,9,10,11,12,13,14,15,16,17,18,19,20,21},
	{2,3,4,5,6,7,8,9,10,11,12,13,14,15,16,17,18,19,20,21},
	{2,3,4,5,6,7,8,9,10,11,12,13,14,15,16,17,18,19,20,21},
	{2,3,4,5,6,7,8,9,10,11,12,13,14,15,16,17,18,19,20,21}];
